211 4100
2 3 4 5 6 7 8 9 10 11 12 13 14 15 16 33 36 41 43 45 47 48 51 54 56 57 59 60 61 62 63 64 65 66 67 68 69 70 71 72 73 74 75 76 77 78 79 80 81 83 84 86 87 88 90 92 95 97 103 106 113 114 121 124 126 129 132 134 135 140 141 142 145 146 149 159 160 161 162 163 164 166 172 174 175 176 177 178 179 180 181 182 183 184 190 191 193 195 197 198 199 200 201 202 203 206 207 208 211
1 3 4 5 6 7 8 9 10 11 12 13 14 15 16 33 36 41 43 45 47 48 51 54 56 57 59 60 61 62 63 64 65 66 67 68 69 70 71 72 73 74 75 76 77 78 79 80 81 83 84 86 87 88 90 92 95 97 103 106 113 114 121 124 126 129 132 134 135 140 141 142 145 146 149 159 160 161 162 163 164 166 172 174 175 176 177 178 179 180 181 182 183 184 190 191 193 195 197 198 199 200 201 202 203 206 207 208 211
1 2 4 5 6 7 8 9 10 11 12 13 14 15 16 33 36 41 43 45 47 48 51 54 56 57 59 60 61 62 63 64 65 66 67 68 69 70 71 72 73 74 75 76 77 78 79 80 81 83 84 86 87 88 90 92 95 97 103 106 113 114 121 124 126 129 132 134 135 140 141 142 145 146 149 159 160 161 162 163 164 166 172 174 175 176 177 178 179 180 181 182 183 184 190 191 193 195 197 198 199 200 201 202 203 206 207 208 211
1 2 3 5 6 7 8 9 10 11 12 13 14 15 16 33 36 41 43 45 47 48 51 54 56 57 59 60 61 62 71 72 73 74 75 76 77 78 79 81 84 88 90 92 95 97 106 113 114 121 124 126 129 132 134 135 140 141 142 145 146 149 159 160 161 162 163 164 166 172 174 175 176 177 178 179 180 181 182 183 184 190 191 193 195 197 198 199 200 201 202 203 206 207 208 211
1 2 3 4 6 7 8 9 10 11 12 13 14 15 16 33 36 41 43 45 47 48 51 54 56 57 59 60 61 62 63 71 72 73 74 75 76 77 78 79 81 84 88 90 92 95 97 106 113 114 121 124 126 129 132 134 135 140 141 142 145 146 149 159 160 161 162 163 164 166 172 174 175 176 177 178 179 180 181 182 183 184 190 191 193 195 197 198 199 200 201 202 203 206 207 208 211
1 2 3 4 5 7 8 9 10 11 12 13 14 15 16 33 36 41 43 45 47 48 51 54 56 57 59 60 61 62 63 64 71 72 73 74 75 76 77 78 79 81 84 88 90 92 95 97 106 113 114 121 124 126 129 132 134 135 140 141 142 145 146 149 159 160 161 162 163 164 166 172 174 175 176 177 178 179 180 181 182 183 184 190 191 193 195 197 198 199 200 201 202 203 206 207 208 211
1 2 3 4 5 6 8 9 10 11 12 13 14 15 16 33 36 41 43 45 47 48 51 54 56 57 59 60 61 62 63 64 65 71 72 73 74 75 76 77 78 79 81 84 88 90 92 95 97 106 113 114 121 124 126 129 132 134 135 140 141 142 145 146 149 159 160 161 162 163 164 166 172 174 175 176 177 178 179 180 181 182 183 184 190 191 193 195 197 198 199 200 201 202 203 206 207 208 211
1 2 3 4 5 6 7 9 10 11 12 13 14 15 16 33 36 41 43 45 47 48 51 54 56 57 59 60 61 62 63 64 65 66 71 72 73 74 75 76 77 78 79 81 84 88 90 92 95 97 106 113 114 121 124 126 129 132 134 135 140 141 142 145 146 149 159 160 161 162 163 164 166 172 174 175 176 177 178 179 180 181 182 183 184 190 191 193 195 197 198 199 200 201 202 203 206 207 208 211
1 2 3 4 5 6 7 8 10 11 12 13 14 15 16 33 36 41 43 45 47 48 51 54 56 57 59 60 61 62 63 64 65 66 67 71 72 73 74 75 76 77 78 79 81 84 88 90 92 95 97 106 113 114 121 124 126 129 132 134 135 140 141 142 145 146 149 159 160 161 162 163 164 166 172 174 175 176 177 178 179 180 181 182 183 184 190 191 193 195 197 198 199 200 201 202 203 206 207 208 211
1 2 3 4 5 6 7 8 9 11 12 13 14 15 16 33 36 41 43 45 47 48 51 54 56 57 59 60 61 62 63 64 65 66 67 68 71 72 73 74 75 76 77 78 79 81 84 88 90 92 95 97 106 113 114 121 124 126 129 132 134 135 140 141 142 145 146 149 159 160 161 162 163 164 166 172 174 175 176 177 178 179 180 181 182 183 184 190 191 193 195 197 198 199 200 201 202 203 206 207 208 211
1 2 3 4 5 6 7 8 9 10 12 13 14 15 16 33 36 41 43 45 47 48 51 54 56 57 59 60 61 62 63 64 65 66 67 68 69 70 71 72 73 74 75 76 77 78 79 80 81 83 84 86 87 88 90 92 95 97 103 106 113 114 121 124 126 129 132 134 135 140 141 142 145 146 149 159 160 161 162 163 164 166 172 174 175 176 177 178 179 180 181 182 183 184 190 191 193 195 197 198 199 200 201 202 203 206 207 208 211
1 2 3 4 5 6 7 8 9 10 11 13 14 15 16 33 36 41 43 45 47 48 51 54 56 57 59 60 61 62 63 64 65 66 67 68 69 70 71 72 73 74 75 76 77 78 79 80 81 83 84 86 87 88 90 92 95 97 103 106 113 114 121 124 126 129 132 134 135 140 141 142 145 146 149 159 160 161 162 163 164 166 172 174 175 176 177 178 179 180 181 182 183 184 190 191 193 195 197 198 199 200 201 202 203 206 207 208 211
1 2 3 4 5 6 7 8 9 10 11 12 14 15 16 33 36 41 43 45 47 48 51 54 56 57 59 60 61 62 63 64 65 66 67 68 69 70 71 72 73 74 75 76 77 78 79 80 81 83 84 86 87 88 90 92 95 97 103 106 113 114 121 124 126 129 132 134 135 140 141 142 145 146 149 159 160 161 162 163 164 166 172 174 175 176 177 178 179 180 181 182 183 184 190 191 193 195 197 198 199 200 201 202 203 206 207 208 211
1 2 3 4 5 6 7 8 9 10 11 12 13 15 16 33 36 41 43 45 47 48 51 54 56 57 59 60 61 62 63 64 65 66 67 68 69 70 71 72 73 74 75 76 77 78 79 80 81 83 84 86 87 88 90 92 95 97 103 106 113 114 121 124 126 129 132 134 135 140 141 142 145 146 149 159 160 161 162 163 164 166 172 174 175 176 177 178 179 180 181 182 183 184 190 191 193 195 197 198 199 200 201 202 203 206 207 208 211
1 2 3 4 5 6 7 8 9 10 11 12 13 14 16 33 36 41 43 45 47 48 51 54 56 57 59 60 61 62 63 64 65 66 67 68 69 70 71 72 73 74 75 76 77 78 79 80 81 83 84 86 87 88 90 92 95 97 103 106 113 114 121 124 126 129 132 134 135 140 141 142 145 146 149 159 160 161 162 163 164 166 172 174 175 176 177 178 179 180 181 182 183 184 190 191 193 195 197 198 199 200 201 202 203 206 207 208 211
1 2 3 4 5 6 7 8 9 10 11 12 13 14 15 33 36 41 43 45 47 48 51 54 56 57 59 60 61 62 63 64 65 66 67 68 69 70 71 72 73 74 75 76 77 78 79 80 81 83 84 86 87 88 90 92 95 97 103 106 113 114 121 124 126 129 132 134 135 140 141 142 145 146 149 159 160 161 162 163 164 166 172 174 175 176 177 178 179 180 181 182 183 184 190 191 193 195 197 198 199 200 201 202 203 206 207 208 211
18 19 20 21 22 23 24 25 26 27 28 29 30 31 32 33 36 41 43 45 47 48 51 54 56 57 59 60 61 62 63 64 65 66 67 68 69 70 71 72 73 74 75 76 77 78 79 80 81 83 84 86 87 88 90 92 95 97 103 106 113 114 121 124 126 129 132 134 135 140 141 142 145 146 149 159 160 161 162 163 164 166 172 174 175 176 177 178 179 180 181 182 183 184 190 191 193 195 197 198 199 200 201 202 203 206 207 208 211
17 19 20 21 22 23 24 25 26 27 28 29 30 31 32 63 64 65 66 67 68 69 70 80 83 86 87 103
17 18 20 21 22 23 24 25 26 27 28 29 30 31 32 63 64 65 66 67 68 69 70 71 80 83 86 87 103
17 18 19 21 22 23 24 25 26 27 28 29 30 31 32 63 64 65 66 67 68 69 70 71 72 80 83 86 87 103
17 18 19 20 22 23 24 25 26 27 28 29 30 31 32 63 64 65 66 67 68 69 70 71 72 73 80 83 86 87 103
17 18 19 20 21 23 24 25 26 27 28 29 30 31 32 63 64 65 66 67 68 69 70 71 72 73 74 80 83 86 87 103
17 18 19 20 21 22 24 25 26 27 28 29 30 31 32 63 64 65 66 67 68 69 70 71 72 73 74 75 80 83 86 87 103
17 18 19 20 21 22 23 25 26 27 28 29 30 31 32 63 64 65 66 67 68 69 70 71 72 73 74 75 76 80 83 86 87 103
17 18 19 20 21 22 23 24 26 27 28 29 30 31 32 63 64 65 66 67 68 69 70 71 72 73 74 75 76 77 80 83 86 87 103
17 18 19 20 21 22 23 24 25 27 28 29 30 31 32 63 64 65 66 67 68 69 70 71 72 73 74 75 76 77 78 80 83 86 87 103
17 18 19 20 21 22 23 24 25 26 28 29 30 31 32 33 36 41 43 45 47 48 51 54 56 57 59 60 61 62 63 64 65 66 67 68 69 70 71 72 73 74 75 76 77 78 79 80 81 83 84 86 87 88 90 92 103 106 113 114 121 124 126 129 132 134 135 140 141 142 145 146 149 159 160 161 162 163 164 166 172 174 175 176 177 178 179 180 181 182 183 184 190 191 193 195 197 198 199 200 201 202 203 206 207 208 211
17 18 19 20 21 22 23 24 25 26 27 29 30 31 32 33 36 41 43 45 47 48 54 59 63 64 65 66 67 68 69 70 71 72 73 74 75 76 77 78 79 80 81 83 84 86 87 88 90 92 103 106 140
17 18 19 20 21 22 23 24 25 26 27 28 30 31 32 33 36 41 43 45 47 48 54 59 63 64 65 66 67 68 69 70 71 72 73 74 75 76 77 78 79 80 81 83 84 86 87 88 90 92 103 106 140
17 18 19 20 21 22 23 24 25 26 27 28 29 31 32 33 36 41 43 45 47 48 54 59 63 64 65 66 67 68 69 70 71 72 73 74 75 76 77 78 79 80 81 83 84 86 87 88 90 92 103 106 140
17 18 19 20 21 22 23 24 25 26 27 28 29 30 32 33 36 41 43 45 47 48 54 59 63 64 65 66 67 68 69 70 71 72 73 74 75 76 77 78 79 80 81 83 84 86 87 88 90 92 103 106 140
17 18 19 20 21 22 23 24 25 26 27 28 29 30 31 33 36 41 43 45 47 48 54 59 63 64 65 66 67 68 69 70 71 72 73 74 75 76 77 78 79 80 81 83 84 86 87 88 90 92 103 106 140
1 2 3 4 5 6 7 8 9 10 11 12 13 14 15 16 17 27 28 29 30 31 32 36 41 43 45 47 48 51 54 59 60 61 62 71 72 73 74 75 76 77 78 79 81 84 88 90 92 106 113 114 121 124 126 129 132 134 135 140 141 142 145 146 149 159 160 161 162 163 211


1 2 3 4 5 6 7 8 9 10 11 12 13 14 15 16 17 27 28 29 30 31 32 33 41 43 45 47 48 51 54 56 57 59 60 61 62 71 72 73 74 75 76 77 78 79 81 84 88 90 92 106 113 114 121 124 126 129 132 134 135 140 141 142 145 146 149 159 160 161 162 163 164 166 172 174 175 176 177 178 179 180 181 182 183 184 190 191 193 195 197 198 199 200 201 202 203 206 207 208 211




1 2 3 4 5 6 7 8 9 10 11 12 13 14 15 16 17 27 28 29 30 31 32 33 36 43 45 48 51 54 56 57 59 60 61 62 71 72 73 74 75 76 77 78 79 81 84 88 90 92 106 113 114 121 124 126 129 132 134 135 140 141 142 145 146 149 159 160 161 162 163 164 166 172 174 175 176 177 178 179 180 181 182 183 184 190 191 193 195 197 198 199 200 201 202 203 206 207 208 211

1 2 3 4 5 6 7 8 9 10 11 12 13 14 15 16 17 27 28 29 30 31 32 33 36 41 45 48 51 54 56 57 59 60 61 62 71 72 73 74 75 76 77 78 79 81 84 88 90 92 106 113 114 121 124 126 129 132 134 135 140 141 142 145 146 149 159 160 161 162 163 164 166 172 174 175 176 177 178 179 180 181 182 183 184 190 191 193 195 197 198 199 200 201 202 203 206 207 208 211

1 2 3 4 5 6 7 8 9 10 11 12 13 14 15 16 17 27 28 29 30 31 32 33 36 41 43 48 51 54 56 57 59 60 61 62 71 72 73 74 75 76 77 78 79 81 84 88 90 92 106 113 114 121 124 126 129 132 134 135 140 141 142 145 146 149 159 160 161 162 163 164 166 172 174 175 176 177 178 179 180 190 191 193 195 197 198 199 200 201 202 203 206 207 208 211

1 2 3 4 5 6 7 8 9 10 11 12 13 14 15 16 17 27 28 29 30 31 32 33 36 48 51 71 72 73 74 75 76 77 78 79 81 84 88 90 92 95 97
1 2 3 4 5 6 7 8 9 10 11 12 13 14 15 16 17 27 28 29 30 31 32 33 36 41 43 45 47 51 54 59 60 61 62 71 72 73 74 75 76 77 78 79 81 84 88 90 92 106 113 114 121 124 126 129 132 134 135 140 141 142 145 146 149 159 160 161 162 163 190 191 193 211


1 2 3 4 5 6 7 8 9 10 11 12 13 14 15 16 17 27 33 36 41 43 45 47 48 54 56 57 59 60 61 62 71 72 73 74 75 76 77 78 79 81 84 88 90 92 106 113 114 121 124 126 129 132 134 135 140 141 142 149 159 160 161 162 163 164 166 172 174 175 176 177 178 179 180 181 182 183 184 190 191 193 195 197 198 199 200 201 202 203 206 207 208 211


1 2 3 4 5 6 7 8 9 10 11 12 13 14 15 16 17 27 28 29 30 31 32 33 36 41 43 45 48 51 56 57 59 60 61 62 71 72 73 74 75 76 77 78 79 81 84 88 90 92 106 113 114 121 124 126 129 132 134 135 140 141 142 145 146 149 159 160 161 162 163 164 166 172 174 175 176 177 178 179 180 181 182 183 184 190 191 193 195 197 198 199 200 201 202 203 206 207 208 211

1 2 3 4 5 6 7 8 9 10 11 12 13 14 15 16 17 27 36 41 43 45 51 54 57 59 62 71 72 73 74 75 76 77 78 79 81 84 88 90 92 106 124 132 140 162 164 191 195 201 206 207 208
1 2 3 4 5 6 7 8 9 10 11 12 13 14 15 16 17 27 36 41 43 45 51 54 56 59 62 71 72 73 74 75 76 77 78 79 81 84 88 90 92 106 124 132 140 162 172 174 175 176 177 178 179 180 181 182 183 184

1 2 3 4 5 6 7 8 9 10 11 12 13 14 15 16 17 27 28 29 30 31 32 33 36 41 43 45 48 51 54 56 57 62 71 72 73 74 75 76 77 78 79 81 84 88 90 92 106 113 124 132 140 141 142 145 146 149 159 160 161 162 163 164 166 172 174 175 176 177 178 179 180 181 182 183 184 190 191 193 195 197 198 199 200 201 202 203 206 207 208
1 2 3 4 5 6 7 8 9 10 11 12 13 14 15 16 17 27 33 36 41 43 45 48 51 54 61 71 72 73 74 75 76 77 78 79 81 84 88 90 92 106 124 126
1 2 3 4 5 6 7 8 9 10 11 12 13 14 15 16 17 27 33 36 41 43 45 48 51 54 60 62 71 72 73 74 75 76 77 78 79 81 84 88 90 92 106 124 126 129
1 2 3 4 5 6 7 8 9 10 11 12 13 14 15 16 17 27 33 36 41 43 45 48 51 54 56 57 59 61 71 72 73 74 75 76 77 78 79 81 84 88 90 92 106 124 129 132 134 135 140 141 142 145 146 159 160 161 162 163 164 166 172 174 175 176 177 178 179 180 181 182 183 184 190 191 193 195 197 198 199 200 201 202 203 206 207 208
1 2 3 5 6 7 8 9 10 11 12 13 14 15 16 17 18 19 20 21 22 23 24 25 26 27 28 29 30 31 32 64 65 66 67 68 69 70 80 83 86 87 103
1 2 3 6 7 8 9 10 11 12 13 14 15 16 17 18 19 20 21 22 23 24 25 26 27 28 29 30 31 32 63 65 66 67 68 69 70 80 83 86 87 103
1 2 3 7 8 9 10 11 12 13 14 15 16 17 18 19 20 21 22 23 24 25 26 27 28 29 30 31 32 63 64 66 67 68 69 70 80 83 86 87 103
1 2 3 8 9 10 11 12 13 14 15 16 17 18 19 20 21 22 23 24 25 26 27 28 29 30 31 32 63 64 65 67 68 69 70 80 83 86 87 103
1 2 3 9 10 11 12 13 14 15 16 17 18 19 20 21 22 23 24 25 26 27 28 29 30 31 32 63 64 65 66 68 69 70 80 83 86 87 103
1 2 3 10 11 12 13 14 15 16 17 18 19 20 21 22 23 24 25 26 27 28 29 30 31 32 63 64 65 66 67 69 70 80 83 86 87 103
1 2 3 11 12 13 14 15 16 17 18 19 20 21 22 23 24 25 26 27 28 29 30 31 32 63 64 65 66 67 68 70 80 83 86 87 103
1 2 3 11 12 13 14 15 16 17 18 19 20 21 22 23 24 25 26 27 28 29 30 31 32 63 64 65 66 67 68 69 80 83 86 87 103
1 2 3 4 5 6 7 8 9 10 11 12 13 14 15 16 17 19 20 21 22 23 24 25 26 27 28 29 30 31 32 33 36 41 43 45 47 48 51 54 56 57 59 60 61 62 72 73 74 75 76 77 78 79 81 84 88 90 92 95 97 106 113 114 121 124 126 129 132 134 135 140 141 142 145 146 149 159 160 161 162 163 164 166 172 174 175 176 177 178 179 180 181 182 183 184 190 191 193 195 197 198 199 200 201 202 203 206 207 208 211
1 2 3 4 5 6 7 8 9 10 11 12 13 14 15 16 17 20 21 22 23 24 25 26 27 28 29 30 31 32 33 36 41 43 45 47 48 51 54 56 57 59 60 61 62 71 73 74 75 76 77 78 79 81 84 88 90 92 95 97 106 113 114 121 124 126 129 132 134 135 140 141 142 145 146 149 159 160 161 162 163 164 166 172 174 175 176 177 178 179 180 181 182 183 184 190 191 193 195 197 198 199 200 201 202 203 206 207 208 211
1 2 3 4 5 6 7 8 9 10 11 12 13 14 15 16 17 21 22 23 24 25 26 27 28 29 30 31 32 33 36 41 43 45 47 48 51 54 56 57 59 60 61 62 71 72 74 75 76 77 78 79 81 84 88 90 92 95 97 106 113 114 121 124 126 129 132 134 135 140 141 142 145 146 149 159 160 161 162 163 164 166 172 174 175 176 177 178 179 180 181 182 183 184 190 191 193 195 197 198 199 200 201 202 203 206 207 208 211
1 2 3 4 5 6 7 8 9 10 11 12 13 14 15 16 17 22 23 24 25 26 27 28 29 30 31 32 33 36 41 43 45 47 48 51 54 56 57 59 60 61 62 71 72 73 75 76 77 78 79 81 84 88 90 92 95 97 106 113 114 121 124 126 129 132 134 135 140 141 142 145 146 149 159 160 161 162 163 164 166 172 174 175 176 177 178 179 180 181 182 183 184 190 191 193 195 197 198 199 200 201 202 203 206 207 208 211
1 2 3 4 5 6 7 8 9 10 11 12 13 14 15 16 17 23 24 25 26 27 28 29 30 31 32 33 36 41 43 45 47 48 51 54 56 57 59 60 61 62 71 72 73 74 76 77 78 79 81 84 88 90 92 95 97 106 113 114 121 124 126 129 132 134 135 140 141 142 145 146 149 159 160 161 162 163 164 166 172 174 175 176 177 178 179 180 181 182 183 184 190 191 193 195 197 198 199 200 201 202 203 206 207 208 211
1 2 3 4 5 6 7 8 9 10 11 12 13 14 15 16 17 24 25 26 27 28 29 30 31 32 33 36 41 43 45 47 48 51 54 56 57 59 60 61 62 71 72 73 74 75 77 78 79 81 84 88 90 92 95 97 106 113 114 121 124 126 129 132 134 135 140 141 142 145 146 149 159 160 161 162 163 164 166 172 174 175 176 177 178 179 180 181 182 183 184 190 191 193 195 197 198 199 200 201 202 203 206 207 208 211
1 2 3 4 5 6 7 8 9 10 11 12 13 14 15 16 17 25 26 27 28 29 30 31 32 33 36 41 43 45 47 48 51 54 56 57 59 60 61 62 71 72 73 74 75 76 78 79 81 84 88 90 92 95 97 106 113 114 121 124 126 129 132 134 135 140 141 142 145 146 149 159 160 161 162 163 164 166 172 174 175 176 177 178 179 180 181 182 183 184 190 191 193 195 197 198 199 200 201 202 203 206 207 208 211
1 2 3 4 5 6 7 8 9 10 11 12 13 14 15 16 17 26 27 28 29 30 31 32 33 36 41 43 45 47 48 51 54 56 57 59 60 61 62 71 72 73 74 75 76 77 79 81 84 88 90 92 95 97 106 113 114 121 124 126 129 132 134 135 140 141 142 145 146 149 159 160 161 162 163 164 166 172 174 175 176 177 178 179 180 181 182 183 184 190 191 193 195 197 198 199 200 201 202 203 206 207 208 211
1 2 3 4 5 6 7 8 9 10 11 12 13 14 15 16 17 27 28 29 30 31 32 33 36 41 43 45 47 48 51 54 56 57 59 60 61 62 71 72 73 74 75 76 77 78 81 84 88 90 92 95 97 106 113 114 121 124 126 129 132 134 135 140 141 142 145 146 149 159 160 161 162 163 164 166 172 174 175 176 177 178 179 180 181 182 183 184 190 191 193 195 197 198 199 200 201 202 203 206 207 208 211
1 2 3 11 12 13 14 15 16 17 18 19 20 21 22 23 24 25 26 27 28 29 30 31 32 63 64 65 66 67 68 69 70 83 86 87 103
1 2 3 4 5 6 7 8 9 10 11 12 13 14 15 16 17 27 28 29 30 31 32 33 36 41 43 45 47 48 51 54 56 57 59 60 61 62 71 72 73 74 75 76 77 78 79 84 88 90 92 95 97 106 113 114 121 124 126 129 132 134 135 140 141 142 145 146 149 159 160 161 162 163 164 166 172 174 175 176 177 178 179 180 181 182 183 184 190 191 193 195 197 198 199 200 201 202 203 206 207 208 211

1 2 3 11 12 13 14 15 16 17 18 19 20 21 22 23 24 25 26 27 28 29 30 31 32 63 64 65 66 67 68 69 70 80 86 87 103
1 2 3 4 5 6 7 8 9 10 11 12 13 14 15 16 17 27 28 29 30 31 32 33 36 41 43 45 47 48 51 54 56 57 59 60 61 62 71 72 73 74 75 76 77 78 79 81 88 90 92 95 97 106 113 114 121 124 126 129 132 134 135 140 141 142 145 146 149 159 160 161 162 163 164 166 172 174 175 176 177 178 179 180 181 182 183 184 190 191 193 195 197 198 199 200 201 202 203 206 207 208 211

1 2 3 11 12 13 14 15 16 17 18 19 20 21 22 23 24 25 26 27 28 29 30 31 32 63 64 65 66 67 68 69 70 80 83 87 103
1 2 3 11 12 13 14 15 16 17 18 19 20 21 22 23 24 25 26 27 28 29 30 31 32 63 64 65 66 67 68 69 70 80 83 86 103
1 2 3 4 5 6 7 8 9 10 11 12 13 14 15 16 17 27 28 29 30 31 32 33 36 41 43 45 47 48 51 54 56 57 59 60 61 62 71 72 73 74 75 76 77 78 79 81 84 90 92 95 97 106 113 114 121 124 126 129 132 134 135 140 141 142 145 146 149 159 160 161 162 163 164 166 172 174 175 176 177 178 179 180 181 182 183 184 190 191 193 195 197 198 199 200 201 202 203 206 207 208 211

1 2 3 4 5 6 7 8 9 10 11 12 13 14 15 16 17 27 28 29 30 31 32 33 36 41 43 45 47 48 51 54 56 57 59 60 61 62 71 72 73 74 75 76 77 78 79 81 84 88 92 95 97 106 113 114 121 124 126 129 132 134 135 140 141 142 145 146 149 159 160 161 162 163 164 166 172 174 175 176 177 178 179 180 181 182 183 184 190 191 193 195 197 198 199 200 201 202 203 206 207 208 211

1 2 3 4 5 6 7 8 9 10 11 12 13 14 15 16 17 27 28 29 30 31 32 33 36 41 43 45 47 48 51 54 56 57 59 60 61 62 71 72 73 74 75 76 77 78 79 81 84 88 90 95 97 106 113 114 121 124 126 129 132 134 135 140 141 142 145 146 149 159 160 161 162 163 164 166 172 174 175 176 177 178 179 180 181 182 183 184 190 191 193 195 197 198 199 200 201 202 203 206 207 208 211


1 2 3 4 5 6 7 8 9 10 11 12 13 14 15 16 17 47 71 72 73 74 75 76 77 78 79 81 84 88 90 92

1 2 3 4 5 6 7 8 9 10 11 12 13 14 15 16 17 47 71 72 73 74 75 76 77 78 79 81 84 88 90 92





1 2 3 11 12 13 14 15 16 17 18 19 20 21 22 23 24 25 26 27 28 29 30 31 32 63 64 65 66 67 68 69 70 80 83 86 87


1 2 3 4 5 6 7 8 9 10 11 12 13 14 15 16 17 27 28 29 30 31 32 33 36 41 43 45 48 51 54 56 57 59 60 61 62 71 72 73 74 75 76 77 78 79 81 84 88 90 92 113 114 121 124 126 129 132 134 135 140 141 142 145 146 149 159 160 161 162 163 164 166 172 174 175 176 177 178 179 180 181 182 183 184 190 191 193 195 197 198 199 200 201 202 203 206 207 208 211






1 2 3 4 5 6 7 8 9 10 11 12 13 14 15 16 17 27 33 36 41 43 45 48 51 54 59 71 72 73 74 75 76 77 78 79 81 84 88 90 92 106
1 2 3 4 5 6 7 8 9 10 11 12 13 14 15 16 17 27 33 36 41 43 45 48 51 54 71 72 73 74 75 76 77 78 79 81 84 88 90 92 106






1 2 3 4 5 6 7 8 9 10 11 12 13 14 15 16 17 27 33 36 41 43 45 48 51 54 71 72 73 74 75 76 77 78 79 81 84 88 90 92 106


1 2 3 4 5 6 7 8 9 10 11 12 13 14 15 16 17 27 33 36 41 43 45 48 51 54 56 57 59 60 61 62 71 72 73 74 75 76 77 78 79 81 84 88 90 92 106 126 129 132 134 135 140 141 142 159 160 161 162 163 164 166 172 174 175 176 177 178 179 180 190 191 193 195 197 198 199 200 201 202 203 206 207 208

1 2 3 4 5 6 7 8 9 10 11 12 13 14 15 16 17 27 33 36 41 43 45 48 51 54 60 61 71 72 73 74 75 76 77 78 79 81 84 88 90 92 106 124


1 2 3 4 5 6 7 8 9 10 11 12 13 14 15 16 17 27 33 36 41 43 45 48 51 54 61 62 71 72 73 74 75 76 77 78 79 81 84 88 90 92 106 124


1 2 3 4 5 6 7 8 9 10 11 12 13 14 15 16 17 27 33 36 41 43 45 48 51 54 56 57 59 62 71 72 73 74 75 76 77 78 79 81 84 88 90 92 106 124 134 135 140 141 142 145 146 159 160 161 162 163 164 166 172 174 175 176 177 178 179 180 181 182 183 184 190 191 193 195 197 198 199 200 201 202 203 206 207 208

1 2 3 4 5 6 7 8 9 10 11 12 13 14 15 16 17 27 33 36 41 43 45 48 51 54 62 71 72 73 74 75 76 77 78 79 81 84 88 90 92 106 124 132
1 2 3 4 5 6 7 8 9 10 11 12 13 14 15 16 17 27 33 36 41 43 45 48 51 54 62 71 72 73 74 75 76 77 78 79 81 84 88 90 92 106 124 132




1 2 3 4 5 6 7 8 9 10 11 12 13 14 15 16 17 27 28 29 30 31 32 33 36 41 43 45 48 51 54 56 57 59 62 71 72 73 74 75 76 77 78 79 81 84 88 90 92 106 124 132 141 142 145 146 159 160 161 162 163 164 166 172 174 175 176 177 178 179 180 181 182 183 184 190 191 193 195 197 198 199 200 201 202 203 206 207 208
1 2 3 4 5 6 7 8 9 10 11 12 13 14 15 16 17 27 33 36 41 43 45 48 51 54 59 62 71 72 73 74 75 76 77 78 79 81 84 88 90 92 106 124 132 140
1 2 3 4 5 6 7 8 9 10 11 12 13 14 15 16 17 27 33 36 41 43 45 48 51 54 59 62 71 72 73 74 75 76 77 78 79 81 84 88 90 92 106 124 132 140


1 2 3 4 5 6 7 8 9 10 11 12 13 14 15 16 17 27 33 36 41 43 45 48 54 59 62 71 72 73 74 75 76 77 78 79 81 84 88 90 92 106 132 140
1 2 3 4 5 6 7 8 9 10 11 12 13 14 15 16 17 27 33 36 41 43 45 48 54 59 62 71 72 73 74 75 76 77 78 79 81 84 88 90 92 106 132 140


1 2 3 4 5 6 7 8 9 10 11 12 13 14 15 16 17 27 33 36 41 43 45 48 51 54 59 71 72 73 74 75 76 77 78 79 81 84 88 90 92 106









1 2 3 4 5 6 7 8 9 10 11 12 13 14 15 16 17 27 33 36 41 43 45 48 51 54 59 62 71 72 73 74 75 76 77 78 79 81 84 88 90 92 106 124 132 140 160
1 2 3 4 5 6 7 8 9 10 11 12 13 14 15 16 17 27 33 36 41 43 45 48 51 54 59 62 71 72 73 74 75 76 77 78 79 81 84 88 90 92 106 124 132 140 159
1 2 3 4 5 6 7 8 9 10 11 12 13 14 15 16 17 27 33 36 41 43 45 48 51 54 59 62 71 72 73 74 75 76 77 78 79 81 84 88 90 92 106 124 132 140
1 2 3 4 5 6 7 8 9 10 11 12 13 14 15 16 17 27 33 36 41 43 45 48 51 54 56 57 59 62 71 72 73 74 75 76 77 78 79 81 84 88 90 92 106 124 132 140 163 164 166 172 174 190 191 193 195 197 198 199 200 201 202 203 206 207 208
1 2 3 4 5 6 7 8 9 10 11 12 13 14 15 16 17 27 33 36 41 43 45 48 51 54 59 62 71 72 73 74 75 76 77 78 79 81 84 88 90 92 106 124 132 140 162
1 2 3 4 5 6 7 8 9 10 11 12 13 14 15 16 17 27 36 41 43 45 51 54 56 59 62 71 72 73 74 75 76 77 78 79 81 84 88 90 92 106 124 132 140 162 166

1 2 3 4 5 6 7 8 9 10 11 12 13 14 15 16 17 27 36 41 43 45 51 54 59 62 71 72 73 74 75 76 77 78 79 81 84 88 90 92 106 124 132 140 162 164





1 2 3 4 5 6 7 8 9 10 11 12 13 14 15 16 17 27 36 41 43 45 51 54 57 59 62 71 72 73 74 75 76 77 78 79 81 84 88 90 92 106 124 132 140 162 174 175 176 177 178 179 180 181 182 183 184

1 2 3 4 5 6 7 8 9 10 11 12 13 14 15 16 17 27 36 41 43 45 51 54 57 59 62 71 72 73 74 75 76 77 78 79 81 84 88 90 92 106 124 132 140 162 172 175 176 177 178 179
1 2 3 4 5 6 7 8 9 10 11 12 13 14 15 16 17 27 36 41 43 45 51 54 57 59 62 71 72 73 74 75 76 77 78 79 81 84 88 90 92 106 124 132 140 172 174
1 2 3 4 5 6 7 8 9 10 11 12 13 14 15 16 17 27 36 41 43 45 51 54 57 59 62 71 72 73 74 75 76 77 78 79 81 84 88 90 92 106 124 132 140 172 174 177 178
1 2 3 4 5 6 7 8 9 10 11 12 13 14 15 16 17 27 36 41 43 45 51 54 57 59 62 71 72 73 74 75 76 77 78 79 81 84 88 90 92 106 124 132 140 172 174 176
1 2 3 4 5 6 7 8 9 10 11 12 13 14 15 16 17 27 36 41 43 45 51 54 57 59 62 71 72 73 74 75 76 77 78 79 81 84 88 90 92 106 124 132 140 172 174 176
1 2 3 4 5 6 7 8 9 10 11 12 13 14 15 16 17 27 36 41 43 45 51 54 57 59 62 71 72 73 74 75 76 77 78 79 81 84 88 90 92 106 124 132 140 172 174
1 2 3 4 5 6 7 8 9 10 11 12 13 14 15 16 17 27 36 41 43 45 51 54 57 59 62 71 72 73 74 75 76 77 78 79 81 84 88 90 92 106 124 132 140 172
1 2 3 4 5 6 7 8 9 10 11 12 13 14 15 16 17 27 36 41 43 51 54 57 59 62 71 72 73 74 75 76 77 78 79 81 84 88 90 92 106 132 140 172
1 2 3 4 5 6 7 8 9 10 11 12 13 14 15 16 17 27 36 41 43 51 54 57 59 62 71 72 73 74 75 76 77 78 79 81 84 88 90 92 106 132 140 172
1 2 3 4 5 6 7 8 9 10 11 12 13 14 15 16 17 27 36 41 43 51 54 57 59 62 71 72 73 74 75 76 77 78 79 81 84 88 90 92 106 132 140 172
1 2 3 4 5 6 7 8 9 10 11 12 13 14 15 16 17 27 36 41 43 51 54 57 59 62 71 72 73 74 75 76 77 78 79 81 84 88 90 92 106 132 140 172





1 2 3 4 5 6 7 8 9 10 11 12 13 14 15 16 17 27 36 41 43 45 48 51 54 59 62 71 72 73 74 75 76 77 78 79 81 84 88 90 92 106 124 132 140 162 191 193 195 197 198 199 200 201
1 2 3 4 5 6 7 8 9 10 11 12 13 14 15 16 17 27 36 41 43 45 48 51 54 56 59 62 71 72 73 74 75 76 77 78 79 81 84 88 90 92 106 124 132 140 162 190 193 195 197 198 199 200 201 202 203

1 2 3 4 5 6 7 8 9 10 11 12 13 14 15 16 17 27 36 41 43 45 48 51 54 59 62 71 72 73 74 75 76 77 78 79 81 84 88 90 92 106 124 132 140 162 190 191 195 197 198 199 200

1 2 3 4 5 6 7 8 9 10 11 12 13 14 15 16 17 27 36 41 43 45 51 54 56 59 62 71 72 73 74 75 76 77 78 79 81 84 88 90 92 106 124 132 140 162 190 191 193 197 198 199 200 201 202 203 206 207

1 2 3 4 5 6 7 8 9 10 11 12 13 14 15 16 17 27 36 41 43 45 51 54 59 62 71 72 73 74 75 76 77 78 79 81 84 88 90 92 106 124 132 140 162 190 191 193 195
1 2 3 4 5 6 7 8 9 10 11 12 13 14 15 16 17 27 36 41 43 45 51 54 59 62 71 72 73 74 75 76 77 78 79 81 84 88 90 92 106 124 132 140 162 190 191 193 195 199
1 2 3 4 5 6 7 8 9 10 11 12 13 14 15 16 17 27 36 41 43 45 51 54 59 62 71 72 73 74 75 76 77 78 79 81 84 88 90 92 106 124 132 140 162 190 191 193 195 198
1 2 3 4 5 6 7 8 9 10 11 12 13 14 15 16 17 27 36 41 43 45 51 54 59 62 71 72 73 74 75 76 77 78 79 81 84 88 90 92 106 124 132 140 162 190 191 193 195 201 202
1 2 3 4 5 6 7 8 9 10 11 12 13 14 15 16 17 27 36 41 43 45 51 54 56 59 62 71 72 73 74 75 76 77 78 79 81 84 88 90 92 106 124 132 140 162 190 191 195 200 202 203 206
1 2 3 4 5 6 7 8 9 10 11 12 13 14 15 16 17 27 36 41 43 45 51 54 59 62 71 72 73 74 75 76 77 78 79 81 84 88 90 92 106 124 132 140 162 191 195 200 201
1 2 3 4 5 6 7 8 9 10 11 12 13 14 15 16 17 27 36 41 43 45 51 54 59 62 71 72 73 74 75 76 77 78 79 81 84 88 90 92 106 124 132 140 162 191 195 201


1 2 3 4 5 6 7 8 9 10 11 12 13 14 15 16 17 27 36 41 43 45 51 54 56 59 62 71 72 73 74 75 76 77 78 79 81 84 88 90 92 106 124 132 140 162 195 201
1 2 3 4 5 6 7 8 9 10 11 12 13 14 15 16 17 27 36 41 43 45 51 54 56 59 62 71 72 73 74 75 76 77 78 79 81 84 88 90 92 106 124 132 140 162 195 208
1 2 3 4 5 6 7 8 9 10 11 12 13 14 15 16 17 27 36 41 43 45 51 54 56 59 62 71 72 73 74 75 76 77 78 79 81 84 88 90 92 106 124 132 140 162 207


1 2 3 4 5 6 7 8 9 10 11 12 13 14 15 16 17 27 33 36 41 43 45 48 51 54 71 72 73 74 75 76 77 78 79 81 84 88 90 92 106
